%
% Generated Sudoku 25x25
% Density approximation: 0.50
%
x = array2d(1..n, 1..n, [
   1,   _,   _,  12,   _,   _,   _,  24,   _,   _,   _,   8,   _,   _,   _,  21,   2,   _,   _,  25,  10,  20,  17,   4,   _,
   9,   _,   2,  17,  19,   _,  25,  14,   4,  23,   5,   _,  18,   _,  10,   _,   7,   8,   _,   _,  21,   _,   _,  12,   _,
   _,   _,   _,  22,  10,   _,   _,   1,   6,   5,   4,   _,  25,  12,   _,   _,   _,  16,  23,   _,   7,   _,   3,   _,   _,
   _,   _,  13,   _,   _,   _,  10,   _,  12,   _,  16,   _,   _,  23,   _,  15,   _,   _,   _,   _,   1,   _,   6,  25,  18,
  18,   6,  21,  25,  11,   9,   _,  16,   _,   _,  20,   _,   _,   _,   1,  12,   _,   _,  24,   4,   _,   _,  19,   _,   _,
  16,   _,   8,   _,   _,   6,  19,   _,  23,  11,   _,   3,   _,  22,  12,   _,  20,   _,  25,   _,  14,   9,   2,  18,  17,
   _,   _,   _,   1,  25,  14,  24,   _,   _,   _,   _,   _,   _,  17,   _,   _,   _,   _,   _,   3,   _,   _,  22,  10,   4,
   _,   _,   _,   _,   _,  12,   7,   _,   _,   _,   9,   _,  20,   _,  16,   _,  23,   _,  17,  14,  24,  25,  11,   _,   _,
  19,   _,  20,   _,  13,   5,  17,   4,   _,   _,   _,   _,   _,   _,   _,  22,   9,   2,  15,  11,   _,   _,  21,   7,  23,
  12,   9,  22,   6,  17,  15,   2,   _,   _,   _,  10,   _,   _,   _,   _,   _,   4,  21,   _,  24,  19,   3,   _,   _,  16,
   _,   _,   _,   _,   _,   _,   _,   2,   _,   _,   _,  24,   9,  10,   _,   _,   _,   _,   4,   _,   _,   8,   _,   _,   _,
  25,   _,   _,  18,   _,   _,  11,   _,  10,  13,   3,   _,  21,   _,   _,  24,   6,  20,   _,   _,  23,   7,  14,  17,   _,
  20,   _,   7,   _,   9,   _,  16,   _,  18,   _,  11,   4,  12,   6,  19,   _,   _,  23,  14,   _,   2,   _,  24,  22,   _,
   _,  23,   _,   _,   _,   _,   5,  19,   _,   _,  17,   _,   _,  20,  22,   _,   _,   _,  16,  18,  15,   6,  12,   3,   9,
   6,   _,   _,   _,  16,   _,   _,   _,  14,  15,   _,   _,   _,   8,   _,   _,  12,   _,   _,  17,  20,   _,   _,   _,   _,
   _,   3,   _,   _,  12,  10,  22,   _,   _,   1,  15,   _,  16,   _,   4,   _,   _,  25,   6,  20,   _,  19,   _,  24,   _,
  10,  11,   _,   7,   _,  16,  13,   _,   _,   _,   _,  14,  19,   9,   _,   1,   5,  15,   _,   _,   _,   4,  20,   2,   _,
  22,   _,   _,   _,   4,   3,  20,   5,   _,   _,   8,  23,  10,   _,   _,  16,  24,  18,   9,   7,   _,   _,  25,   1,   _,
   _,  17,   _,  24,   1,   _,   _,   9,  19,   _,  22,  11,  13,   _,   _,   _,   _,   _,   2,  12,  18,  16,   8,  21,   7,
  13,   _,   _,  16,   _,   _,  23,   7,   _,  14,  12,   _,   _,   1,   3,   4,  19,  11,  21,   8,   _,  10,   _,   _,   _,
   _,  24,  15,   _,   _,   _,  18,   _,   3,  25,   6,  10,  22,   _,   _,   7,   _,   _,  20,   2,  11,   _,   5,   8,   1,
   3,   _,   _,  23,   5,   _,   _,   _,   9,   7,   _,  20,   _,   _,  17,   _,  25,   _,   _,  16,   4,  15,  10,  13,   2,
   _,   _,   4,   _,  22,   _,   1,   _,   _,  16,   2,   _,   7,   _,  15,   3,   _,   _,  11,   _,  25,  17,   _,  14,   _,
   _,  12,   _,   _,   7,  11,   4,  15,  13,   _,   _,   _,   3,   _,   _,   _,   _,  17,   _,  22,   _,  21,   _,   _,   _,
   _,  16,   _,   _,   _,   _,   _,   _,   _,   _,   _,  21,   5,   4,   9,  23,  18,   _,   _,   _,   3,   _,   7,   _,  12
]);

n = 25;
